; ./seahorn/./sv_comp_flat_small/array-examples/standard_partial_init_true-unreach-call_ground.c.flat_000.smt2
(set-logic HORN)

(declare-fun |main_1| ( Int Int Int Int Int Int Int Int Int Int ) Bool)

(assert
  (forall ( (A Int) (B Int) (C Int) (D Int) (E Int) (F Int) (G Int) (H Int) (I Int) (v_9 Int) ) 
    (=>
      (and
        (and true (= 0 v_9))
      )
      (main_1 v_9 A B C D E F G H I)
    )
  )
)
(assert
  (forall ( (A Int) (B Int) (C Int) (D Int) (E Int) (F Int) (G Int) (H Int) (I Int) (J Int) (K Int) (L Int) (M Int) (N Int) (O Bool) (P Int) (Q Bool) (R Bool) (S Int) (T Int) (U Int) (V Int) (v_22 Int) (v_23 Int) ) 
    (=>
      (and
        (main_1 v_22 F G H I J K L M N)
        (and (= 0 v_22)
     (= D B)
     (= C A)
     (or (= V T) (not R) (not O))
     (or (= U S) (not R) (not O))
     (or (= T 0) (not R) (not O))
     (or (= S 0) (not R) (not O))
     (or (not Q) (and O R))
     (= Q true)
     (= E P)
     (= 1 v_23))
      )
      (main_1 v_23 F G P I J U V A B)
    )
  )
)
(assert
  (forall ( (A Bool) (B Int) (C Int) (D Int) (E Int) (F Int) (G Bool) (H Int) (I Int) (J Int) (K Int) (L Int) (M Int) (N Int) (O Int) (P Int) (Q Bool) (R Int) (S Int) (T Int) (U Int) (V Bool) (W Bool) (X Int) (Y Bool) (Z Bool) (A1 Bool) (B1 Int) (C1 Int) (D1 Int) (E1 Int) (F1 Bool) (G1 Bool) (v_33 Int) (v_34 Int) ) 
    (=>
      (and
        (main_1 v_33 H I J K L M N O P)
        (let ((a!1 (or (not Y) (not (= (<= 100000 E1) A))))
      (a!2 (or (not V) (= B (+ J (* 4 N))))))
  (and (= 1 v_33)
       (= E (+ P (* 4 M)))
       (= C (+ O (* 4 M)))
       (or (not Y) (and Z V) (and Q A1))
       (or (= U S) (not Y) (not G1))
       (or (= T R) (not Y) (not G1))
       (or (= S D1) (not Y) (not G1))
       (or (= R E1) (not Y) (not G1))
       (or (= D1 C1) (not Q) (not A1))
       (or (= C1 N) (not Q) (not A1))
       (or (not G) (not Q) (not A1))
       (or G (not Q) (not W))
       (or A (not Y) (not G1))
       (or (not Z) (not V) (= D1 B1))
       (or (not Z) (not V) (= B1 X))
       (or (not F1) (and Y G1))
       a!1
       (or (not Y) (= E1 (+ 1 M)))
       a!2
       (or (not V) (= X (+ 1 N)))
       (or (not V) (and Q W))
       (= F1 true)
       (= G (= D F))
       (= 1 v_34)))
      )
      (main_1 v_34 H I J K L T U O P)
    )
  )
)
(assert
  (forall ( (A Int) (B Int) (C Bool) (D Bool) (E Int) (F Int) (G Int) (H Int) (I Int) (J Int) (K Bool) (L Int) (M Int) (N Int) (O Int) (P Int) (Q Int) (R Int) (S Int) (T Int) (U Bool) (V Bool) (W Bool) (X Int) (Y Bool) (Z Bool) (A1 Bool) (B1 Int) (C1 Int) (D1 Int) (E1 Int) (F1 Bool) (G1 Bool) (H1 Int) (I1 Int) (J1 Int) (K1 Bool) (L1 Bool) (M1 Bool) (N1 Bool) (O1 Int) (v_41 Int) (v_42 Int) ) 
    (=>
      (and
        (main_1 v_41 L M N O P Q R S T)
        (let ((a!1 (or (not F1) (not (= (<= J1 0) C))))
      (a!2 (or (not V) (= F (+ N (* 4 R)))))
      (a!3 (or (not Y) (not (= (<= 100000 E1) D))))
      (a!4 (or (not K1) (= A (+ E (* (- 1) J1))))))
  (and (= 1 v_41)
       (= I (+ T (* 4 Q)))
       (= G (+ S (* 4 Q)))
       (or (= D1 B1) (not Z) (not V))
       (or (= B1 X) (not Z) (not V))
       (or (= D1 C1) (not U) (not A1))
       (or (= C1 R) (not U) (not A1))
       (or (not K) (not U) (not A1))
       (or K (not U) (not W))
       (or C (not F1) (not L1))
       (or (and V Z) (and U A1) (not Y))
       (or (= E H1) (not G1) (not Y))
       (or (= J1 I1) (not G1) (not Y))
       (or (= I1 D1) (not G1) (not Y))
       (or (= H1 E1) (not G1) (not Y))
       (or (not D) (not G1) (not Y))
       (or (= B O1) (not N1) (not K1))
       (or (= O1 0) (not N1) (not K1))
       (or (not M1) (and K1 N1))
       a!1
       (or (not F1) (and Y G1))
       a!2
       (or (not V) (= X (+ 1 R)))
       (or (not V) (and U W))
       a!3
       (or (not Y) (= E1 (+ 1 Q)))
       a!4
       (or (not K1) (and F1 L1))
       (= M1 true)
       (= K (= H J))
       (= 2 v_42)))
      )
      (main_1 v_42 L J1 N B A Q R S T)
    )
  )
)
(assert
  (forall ( (A Int) (B Bool) (C Bool) (D Int) (E Int) (F Int) (G Int) (H Int) (I Int) (J Bool) (K Int) (L Int) (M Int) (N Int) (O Int) (P Int) (Q Int) (R Int) (S Int) (T Bool) (U Bool) (V Bool) (W Int) (X Bool) (Y Bool) (Z Bool) (A1 Int) (B1 Int) (C1 Int) (D1 Int) (E1 Bool) (F1 Bool) (G1 Int) (H1 Int) (I1 Int) (J1 Bool) (K1 Bool) (L1 Bool) (M1 Bool) (N1 Int) (v_40 Int) (v_41 Int) ) 
    (=>
      (and
        (main_1 v_40 K L M N O P Q R S)
        (let ((a!1 (or (not E1) (not (= (<= I1 0) B))))
      (a!2 (or (not U) (= E (+ M (* 4 Q)))))
      (a!3 (or (not X) (not (= (<= 100000 D1) C)))))
  (and (= 1 v_40)
       (= H (+ S (* 4 P)))
       (= F (+ R (* 4 P)))
       (or (= C1 A1) (not Y) (not U))
       (or (= A1 W) (not Y) (not U))
       (or (= C1 B1) (not T) (not Z))
       (or (= B1 Q) (not T) (not Z))
       (or (not J) (not T) (not Z))
       (or J (not T) (not V))
       (or (not B) (not E1) (not K1))
       (or (and U Y) (and T Z) (not X))
       (or (= D G1) (not F1) (not X))
       (or (= I1 H1) (not F1) (not X))
       (or (= H1 C1) (not F1) (not X))
       (or (= G1 D1) (not F1) (not X))
       (or (not C) (not F1) (not X))
       (or (= A N1) (not M1) (not J1))
       (or (= N1 0) (not M1) (not J1))
       (or (not L1) (and J1 M1))
       a!1
       (or (not E1) (and X F1))
       a!2
       (or (not U) (= W (+ 1 Q)))
       (or (not U) (and T V))
       a!3
       (or (not X) (= D1 (+ 1 P)))
       (or (not J1) (and E1 K1))
       (= L1 true)
       (= J (= G I))
       (= 3 v_41)))
      )
      (main_1 v_41 A I1 M N O P Q R S)
    )
  )
)
(assert
  (forall ( (A Bool) (B Int) (C Int) (D Int) (E Bool) (F Bool) (G Int) (H Int) (I Int) (J Int) (K Int) (L Int) (M Int) (N Int) (O Int) (P Int) (Q Bool) (R Int) (S Int) (T Bool) (U Bool) (V Bool) (W Bool) (v_23 Int) (v_24 Int) ) 
    (=>
      (and
        (main_1 v_23 H I J K L M N O P)
        (let ((a!1 (or (not T) (not (= (<= I S) A)))))
  (and (= 2 v_23)
       (not (= E F))
       (= D (+ L K))
       (= B (+ J (* 4 K)))
       (= S (+ 1 K))
       (or (not W) (not T) (= G R))
       (or (not W) (not T) (= R S))
       (or (not W) (not T) A)
       (or (not F) (not Q) (not U))
       a!1
       (or (not T) (and Q U))
       (or (not V) (and W T))
       (= V true)
       (= E (<= C D))
       (= 2 v_24)))
      )
      (main_1 v_24 H I J G L M N O P)
    )
  )
)
(assert
  (forall ( (A Int) (B Bool) (C Int) (D Int) (E Int) (F Bool) (G Bool) (H Int) (I Int) (J Int) (K Int) (L Int) (M Int) (N Int) (O Int) (P Int) (Q Bool) (R Bool) (S Bool) (T Bool) (U Int) (V Int) (W Bool) (X Bool) (Y Bool) (Z Bool) (A1 Bool) (v_27 Int) (v_28 Int) ) 
    (=>
      (and
        (main_1 v_27 H I J K L M N O P)
        (let ((a!1 (or (not W) (not (= (<= I V) B)))))
  (and (= 2 v_27)
       (not (= F G))
       (= E (+ L K))
       (= C (+ J (* 4 K)))
       (= V (+ 1 K))
       (or (not G) (not Q) (not X))
       (or (not B) (not Z) (not W))
       (or (not T) (not R) (= A U))
       (or (not T) (not R) (= U 0))
       (or (not Y) (and W Z))
       (or (not R) (and A1 Y))
       (or (not S) (and T R))
       a!1
       (or (not W) (and Q X))
       (= S true)
       (= F (<= D E))
       (= 3 v_28)))
      )
      (main_1 v_28 A I J K L M N O P)
    )
  )
)
(assert
  (forall ( (A Int) (B Int) (C Int) (D Bool) (E Bool) (F Int) (G Int) (H Int) (I Int) (J Int) (K Int) (L Int) (M Int) (N Int) (O Bool) (P Int) (Q Bool) (R Bool) (S Bool) (T Bool) (v_20 Int) (v_21 Int) ) 
    (=>
      (and
        (main_1 v_20 F G H I J K L M N)
        (and (= 2 v_20)
     (not (= D E))
     (= C (+ J I))
     (= A (+ H (* 4 I)))
     (= P (+ 1 I))
     (or E (not O) (not R))
     (or (not Q) (and O R))
     (or (not S) (and T Q))
     (= S true)
     (= D (<= B C))
     (= 4 v_21))
      )
      (main_1 v_21 F G H I J K L M N)
    )
  )
)
(assert
  (forall ( (A Bool) (B Int) (C Int) (D Bool) (E Bool) (F Int) (G Int) (H Int) (I Int) (J Int) (K Int) (L Int) (M Int) (N Int) (O Int) (P Bool) (Q Int) (R Int) (S Bool) (T Bool) (v_20 Int) (v_21 Int) ) 
    (=>
      (and
        (main_1 v_20 G H I J K L M N O)
        (and (= 3 v_20)
     (= D (>= C G))
     (not (= D E))
     (= B (+ I (* 4 G)))
     (= R (+ 1 G))
     (or (= F Q) (not P) (not T))
     (or (= Q R) (not P) (not T))
     (or (not E) (not P) (not T))
     (or (not S) (and P T))
     (= A true)
     (= S true)
     (not (= (<= H G) A))
     (= 3 v_21))
      )
      (main_1 v_21 F H I J K L M N O)
    )
  )
)
(assert
  (forall ( (A Bool) (B Int) (C Int) (D Bool) (E Bool) (F Int) (G Int) (H Int) (I Int) (J Int) (K Int) (L Int) (M Int) (N Int) (O Bool) (P Bool) (Q Int) (R Bool) (S Bool) (T Bool) (v_20 Int) (v_21 Int) ) 
    (=>
      (and
        (main_1 v_20 F G H I J K L M N)
        (and (= 3 v_20)
     (= D (>= C F))
     (not (= D E))
     (= B (+ H (* 4 F)))
     (= Q (+ 1 F))
     (or E (not S) (not O))
     (or (not R) (and O S))
     (or (not P) (and T R))
     (= A true)
     (= P true)
     (not (= (<= G F) A))
     (= 4 v_21))
      )
      (main_1 v_21 F G H I J K L M N)
    )
  )
)
(assert
  (forall ( (A Int) (B Int) (C Int) (D Int) (E Int) (F Int) (G Int) (H Int) (I Int) (v_9 Int) ) 
    (=>
      (and
        (main_1 v_9 A B C D E F G H I)
        (= 4 v_9)
      )
      false
    )
  )
)

(check-sat)
(exit)
